#######################



#######################
Set parameter TimeLimit to value 300
Set parameter SoftMemLimit to value 125
Set parameter MIPFocus to value 2
Set parameter LogFile to value 1202-MIPFocus2-Presolve1-TimeLimit300-k16x240-7.log
Set parameter Presolve to value 1
Set parameter Seed to value 7
Using license file /opt/gurobi/gurobi.lic

Gurobi Optimizer version 12.0.2 build v12.0.2rc0 (linux64 - "Ubuntu 22.04.4 LTS")
Copyright (c) 2025, Gurobi Optimization, LLC

Read MPS format model from file /miplib2010/k16x240.mps.bz2
Reading time = 0.00 seconds
k16x240: 256 rows, 480 columns, 960 nonzeros

Using Gurobi shared library /nfs/shared/static-builds/gurobi1202

CPU model: Intel(R) Xeon(R) E-2388G CPU @ 3.20GHz, instruction set [SSE2|AVX|AVX2|AVX512]
Thread count: 8 physical cores, 16 logical processors, using up to 16 threads

Non-default parameters:
TimeLimit  300
SoftMemLimit  125
MIPFocus  2
Presolve  1
Seed  7

Optimize a model with 256 rows, 480 columns and 960 nonzeros
Model fingerprint: 0x4e80885f
Variable types: 240 continuous, 240 integer (240 binary)
Coefficient statistics:
  Matrix range     [1e+00, 1e+03]
  Objective range  [1e+00, 1e+03]
  Bounds range     [1e+00, 1e+03]
  RHS range        [4e+00, 4e+02]
Found heuristic solution: objective 24303.000000
Presolve time: 0.00s
Presolved: 256 rows, 480 columns, 960 nonzeros
Variable types: 240 continuous, 240 integer (240 binary)

Root relaxation: objective 2.769838e+03, 51 iterations, 0.00 seconds (0.00 work units)

    Nodes    |    Current Node    |     Objective Bounds      |     Work
 Expl Unexpl |  Obj  Depth IntInf | Incumbent    BestBd   Gap | It/Node Time

     0     0 2769.83800    0   14 24303.0000 2769.83800  88.6%     -    0s
H    0     0                    11359.000000 2769.83800  75.6%     -    0s
H    0     0                    11342.000000 2769.83800  75.6%     -    0s
H    0     0                    11195.000000 2769.83800  75.3%     -    0s
H    0     0                    11088.000000 2769.83800  75.0%     -    0s
H    0     0                    11074.000000 2769.83800  75.0%     -    0s
     0     0 8116.87580    0   26 11074.0000 8116.87580  26.7%     -    0s
H    0     0                    10916.000000 8161.01413  25.2%     -    0s
H    0     0                    10896.000000 8588.30479  21.2%     -    0s
H    0     0                    10806.000000 8588.30479  20.5%     -    0s
     0     0 8588.30479    0   25 10806.0000 8588.30479  20.5%     -    0s
     0     0 8613.92228    0   22 10806.0000 8613.92228  20.3%     -    0s
     0     0 8720.59081    0   23 10806.0000 8720.59081  19.3%     -    0s
H    0     0                    10792.000000 8724.13618  19.2%     -    0s
H    0     0                    10750.000000 8724.13618  18.8%     -    0s
H    0     0                    10748.000000 8724.13618  18.8%     -    0s
     0     0 8841.67029    0   27 10748.0000 8841.67029  17.7%     -    0s
     0     0 8855.22353    0   40 10748.0000 8855.22353  17.6%     -    0s
     0     0 8861.18726    0   41 10748.0000 8861.18726  17.6%     -    0s
     0     0 9019.35904    0   41 10748.0000 9019.35904  16.1%     -    0s
     0     0 9033.70156    0   42 10748.0000 9033.70156  15.9%     -    0s
     0     0 9038.22424    0   43 10748.0000 9038.22424  15.9%     -    0s
     0     0 9099.40456    0   35 10748.0000 9099.40456  15.3%     -    0s
     0     0 9103.89712    0   38 10748.0000 9103.89712  15.3%     -    0s
     0     0 9125.15749    0   30 10748.0000 9125.15749  15.1%     -    0s
     0     0 9130.77908    0   26 10748.0000 9130.77908  15.0%     -    0s
     0     0 9135.38960    0   30 10748.0000 9135.38960  15.0%     -    0s
     0     0 9136.72849    0   30 10748.0000 9136.72849  15.0%     -    0s
     0     2 9136.72849    0   30 10748.0000 9136.72849  15.0%     -    0s
H   56    63                    10746.000000 9215.54936  14.2%  46.7    0s
H  703   597                    10674.000000 9318.57611  12.7%  24.4    0s
 37465 11688     cutoff   29      10674.0000 10130.9009  5.09%  26.9    5s
 88897 11914 10579.3254   21   20 10674.0000 10359.7852  2.94%  27.1   10s

Cutting planes:
  Gomory: 1
  Lift-and-project: 13
  Cover: 85
  Implied bound: 43
  Dual implied bound: 22
  MIR: 150
  Mixing: 1
  Flow cover: 272
  Flow path: 31
  Inf proof: 2
  Zero half: 9
  Network: 48
  Relax-and-lift: 2

Explored 120288 nodes (3051394 simplex iterations) in 12.63 seconds (16.46 work units)
Thread count was 16 (of 16 available processors)

Solution count 10: 10674 10746 10748 ... 11088

Optimal solution found (tolerance 1.00e-04)
Best objective 1.067400000000e+04, best bound 1.067400000000e+04, gap 0.0000%
